ID_groupA,ID_groupB,ID_groupC,ID_groupD,ID_groupE
3443,4914,693,776,891
3443,209,4015,2159,891
3443,209,109,2159,891
3443,209,693,2159,891
3443,209,693,2159,891
3443,209,693,2159,891
3443,209,693,2159,891
3443,209,693,776,891
3443,209,693,2159,891
3443,209,4015,2159,891
3443,209,693,2159,891
3443,232,693,776,3752
3443,209,693,2159,891
3443,209,693,2159,891
3443,4914,4015,2159,3029
3443,4914,109,776,891
3443,4914,693,2159,891
3443,4914,693,2159,891
3443,4914,4015,2159,3029
3443,4914,4015,2159,3029
3443,4914,4015,2159,891
3443,4914,693,2159,891
3443,4914,4015,2159,3029
3443,4914,4015,776,3029
3443,4914,693,2159,891
3443,4914,693,2159,891
3443,4914,693,776,891
3443,4187,109,2159,3029
3443,209,4015,2159,891
3443,209,4015,2159,891
3443,209,4015,2159,891
3443,209,4015,2159,891
3443,209,4015,2159,891
3443,209,4015,2159,891
3443,209,4015,2159,891
3443,209,4015,2159,891
3443,232,4015,2159,3752
3443,209,4015,2159,891
3443,209,693,2159,3029
3443,209,109,2159,891
3443,209,109,2159,891
3443,209,109,2159,891
3443,209,109,2159,891
3443,209,109,2159,891
3443,209,109,2159,891
3443,4187,4015,2159,3029
3443,209,109,2159,891
3443,232,109,2159,3752
3443,209,109,2159,891
3443,209,109,2159,891
3443,209,4015,2159,891
3443,209,4015,2159,891
3443,209,4015,2159,891
3443,209,693,2159,891
3443,209,4137,2159,891
3443,209,4015,2159,891
3443,209,693,2159,891
3443,232,4015,2159,3752
3443,209,4015,2159,891
3443,209,693,2159,891
3443,209,4015,2159,891
3443,209,4015,2159,891
3443,209,693,2159,891
3443,209,4137,2159,891
3443,209,4015,2159,891
3443,209,4015,2159,891
3443,232,4015,2159,3752
3443,209,693,776,891
3443,209,693,2159,891
3443,209,4015,2159,891
3443,209,693,2159,891
3443,209,4137,2159,891
3443,209,4015,2159,891
3443,209,4015,2159,891
3443,232,4015,2159,3752
3443,209,4015,2159,891
3443,209,693,2159,891
3443,209,4015,2159,891
3443,209,4015,2159,891
3443,209,4015,2159,891
3443,209,4015,2159,891
3443,232,4015,2159,3752
3443,209,4015,2159,891
3443,209,693,2159,891
3443,209,693,2159,891
3443,209,4015,2159,891
3443,209,693,2159,891
3443,232,4015,2159,3752
3443,209,693,2159,891
3443,209,693,776,891
3443,209,4015,2159,891
3443,209,4137,2159,891
3443,232,4137,2159,3752
3443,209,4137,2159,891
3443,209,693,2159,891
3443,209,4015,2159,891
3443,232,4015,2159,3752
3443,209,4015,2159,891
3443,209,4015,2159,891
3443,232,4015,2159,3752
3443,209,4015,2159,891
3443,209,693,2159,891
3443,232,4015,2159,3752
3443,232,693,776,3752
3443,209,693,2159,891
